objective value:                 0.000971467507999996
x_1_2                                               1 	(obj:0)
x_2_2                                               1 	(obj:0)
x_3_4                                               1 	(obj:0)
x_4_1                                               1 	(obj:0)
x_5_2                                               1 	(obj:0)
x_6_4                                               1 	(obj:0)
x_7_1                                               1 	(obj:0)
x_8_1                                               1 	(obj:0)
x_9_4                                               1 	(obj:0)
x_10_4                                              1 	(obj:0)
x_11_2                                              1 	(obj:0)
x_12_2                                              1 	(obj:0)
x_13_4                                              1 	(obj:0)
x_14_1                                              1 	(obj:0)
x_15_1                                              1 	(obj:0)
x_16_4                                              1 	(obj:0)
x_17_2                                              1 	(obj:0)
x_18_1                                              1 	(obj:0)
x_19_2                                              1 	(obj:0)
x_20_4                                              1 	(obj:0)
x_21_2                                              1 	(obj:0)
x_22_4                                              1 	(obj:0)
x_23_1                                              1 	(obj:0)
x_24_2                                              1 	(obj:0)
x_25_4                                              1 	(obj:0)
x_26_4                                              1 	(obj:0)
x_27_2                                              1 	(obj:0)
x_28_2                                              1 	(obj:0)
x_29_2                                              1 	(obj:0)
x_30_1                                              1 	(obj:0)
x_31_4                                              1 	(obj:0)
x_32_1                                              1 	(obj:0)
x_33_1                                              1 	(obj:0)
x_34_2                                              1 	(obj:0)
x_35_1                                              1 	(obj:0)
x_36_4                                              1 	(obj:0)
x_37_1                                              1 	(obj:0)
x_38_4                                              1 	(obj:0)
x_39_4                                              1 	(obj:0)
x_40_2                                              1 	(obj:0)
ind_1                                               1 	(obj:0)
abs_1_4                                             1 	(obj:0)
ind_2                                               1 	(obj:0)
abs_2_1                                             1 	(obj:0)
ind_4                                               1 	(obj:0)
abs_4_2                                             1 	(obj:0)
epsI                             0.000971467507999996 	(obj:1)
SCIP Status        : solving was interrupted [time limit reached]
Total Time         :    3600.01
  solving          :    3600.00
  presolving       :       0.42 (included in solving)
  reading          :       0.01
  copying          :       0.00 (0 times copied the problem)
Original Problem   :
  Problem name     : ../instances/Pot6Cycle/Pot6Cycle_T_40B_1t.txt.spa
  Variables        : 181 (180 binary, 0 integer, 0 implicit integer, 1 continuous)
  Constraints      : 333 initial, 333 maximal
  Objective sense  : maximize
Presolved Problem  :
  Problem name     : t_../instances/Pot6Cycle/Pot6Cycle_T_40B_1t.txt.spa
  Variables        : 1230 (172 binary, 0 integer, 16 implicit integer, 1042 continuous)
  Constraints      : 4315 initial, 4363 maximal
Presolvers         :   ExecTime  SetupTime  Calls  FixedVars   AggrVars   ChgTypes  ChgBounds   AddHoles    DelCons    AddCons   ChgSides   ChgCoefs
  boundshift       :       0.00       0.00      0          0          0          0          0          0          0          0          0          0
  components       :       0.01       0.00      1          0          0          0          0          0          0          0          0          0
  convertinttobin  :       0.00       0.00      0          0          0          0          0          0          0          0          0          0
  domcol           :       0.01       0.00      1          0          0          0          0          0          0          0          0          0
  dualagg          :       0.00       0.00      0          0          0          0          0          0          0          0          0          0
  dualinfer        :       0.00       0.00      0          0          0          0          0          0          0          0          0          0
  gateextraction   :       0.00       0.00      3          0          0          0          0          0        108         34          0          0
  implfree         :       0.00       0.00      0          0          0          0          0          0          0          0          0          0
  implics          :       0.00       0.00      4          0          0          0          0          0          0          0          0          0
  inttobinary      :       0.00       0.00      0          0          0          0          0          0          0          0          0          0
  redvub           :       0.00       0.00      0          0          0          0          0          0          0          0          0          0
  stuffing         :       0.00       0.00      1          0          0          0          0          0          0          0          0          0
  trivial          :       0.00       0.00      7          0          0          0          0          0          0          0          0          0
  tworowbnd        :       0.00       0.00      0          0          0          0          0          0          0          0          0          0
  dualfix          :       0.00       0.00      7          4          0          0          0          0          0          0          0          0
  genvbounds       :       0.00       0.00      0          0          0          0          0          0          0          0          0          0
  probing          :       0.26       0.00      1          0          0          0          0          0          0          0          0          0
  pseudoobj        :       0.00       0.00      0          0          0          0          0          0          0          0          0          0
  varbound         :       0.00       0.00      9          0          0          0          0          0         28         28          0          0
  setppc           :       0.02       0.00     12          0          0          0          0          0          0          0          0          0
  and              :       0.00       0.00      4          0         12          0          0          0         12          0          0          0
  linear           :       0.06       0.00      9          3          1          0          4          0          7          0         12         12
  logicor          :       0.00       0.00      7          0          0          0          0          0          0          0          0          0
  bounddisjunction :       0.00       0.00      0          0          0          0          0          0          0          0          0          0
  quadratic        :       0.06       0.00      2          0          0          0          0          0          0       4075          0          0
  root node        :          -          -      -          1          -          -         63          -          -          -          -          -
Constraints        :     Number  MaxNumber  #Separate #Propagate    #EnfoLP    #EnfoPS     #Check   #ResProp    Cutoffs    DomReds       Cuts    Applied      Conss   Children
  integral         :          0          0          0          0    1013533          0     102670          0          0      48409          0          0          1    1529618
  varbound         :       1909       1909         80    4518644     246085          1      42327     236902       2107   14318195          0          0          0          0
  setppc           :        210        210         80    4516436     246085          1      25696     407616       4653    1092641          8          0          0          0
  and              :         22         22        824      18487          0          0      25663       9628          0        892         32         15          0          0
  linear           :       2099       2099         80    4511884     246085          0      25626     232066       4315   41395909   23757992   23757512          0          0
  logicor          :         75+       147         54     535116          0          0          0      27819        116       8724          0          0          0          0
  bounddisjunction :          0+        49          0     566841          0          0          0       1386         32      57501          0          0          0          0
  countsols        :          0          0          0          0          0          1      60319          0          0          0          0          0          0          0
Constraint Timings :  TotalTime  SetupTime   Separate  Propagate     EnfoLP     EnfoPS      Check    ResProp    SB-Prop
  integral         :      26.21       0.00       0.00       0.00      26.21       0.00       0.00       0.00       0.00
  varbound         :      20.77       0.00       0.00      14.71       3.75       0.00       2.18       0.06       0.07
  setppc           :      28.39       0.00       0.00      28.01       0.07       0.00       0.07       0.06       0.18
  and              :       0.05       0.00       0.00       0.02       0.00       0.00       0.03       0.00       0.00
  linear           :     162.84       0.00       0.01     130.22      30.81       0.00       1.05       0.24       0.51
  logicor          :       0.70       0.00       0.00       0.62       0.00       0.00       0.00       0.03       0.05
  bounddisjunction :       0.31       0.00       0.00       0.31       0.00       0.00       0.00       0.00       0.00
  countsols        :       0.00       0.00       0.00       0.00       0.00       0.00       0.00       0.00       0.00
Propagators        : #Propagate   #ResProp    Cutoffs    DomReds
  dualfix          :          2          0          0          0
  genvbounds       :          0          0          0          0
  obbt             :          0          0          0          0
  probing          :          0          0          0          0
  pseudoobj        :    4012532          0          0         62
  redcost          :    1943637          0          0      44237
  rootredcost      :          1          0          0          0
  vbounds          :    5409782        134          0        191
Propagator Timings :  TotalTime  SetupTime   Presolve  Propagate    ResProp    SB-Prop
  dualfix          :       0.00       0.00       0.00       0.00       0.00       0.00
  genvbounds       :       0.53       0.00       0.00       0.53       0.00       0.00
  obbt             :       0.00       0.00       0.00       0.00       0.00       0.00
  probing          :       0.26       0.00       0.26       0.00       0.00       0.00
  pseudoobj        :       1.27       0.00       0.00       1.27       0.00       0.00
  redcost          :       8.21       0.00       0.00       8.21       0.00       0.00
  rootredcost      :       1.12       0.00       0.00       1.12       0.00       0.00
  vbounds          :       0.92       0.00       0.00       0.92       0.00       0.00
Conflict Analysis  :       Time      Calls    Success    DomReds  Conflicts   Literals    Reconvs ReconvLits   LP Iters
  propagation      :       1.75       6911       6905          -     215094       86.6        482       94.2          -
  infeasible LP    :       6.15      43689          0          -          0        0.0          0        0.0          0
  bound exceed. LP :       0.00          0          0          -          0        0.0          0        0.0          0
  strong branching :       0.00          0          0          -          0        0.0          0        0.0          0
  pseudo solution  :       0.00          0          0          -          0        0.0          0        0.0          -
  applied globally :       0.04          -          -          0       1041       15.3          -          -          -
  applied locally  :          -          -          -          0       5965       40.3          -          -          -
Separators         :   ExecTime  SetupTime      Calls    Cutoffs    DomReds       Cuts    Applied      Conss
  cut pool         :       0.00                    78          -          -       1322          -          -    (maximal pool size: 816)
  cgmip            :       0.00       0.00          0          0          0          0          0          0
  clique           :       0.06       0.00         79          0          0         71         50          0
  closecuts        :       0.00       0.00          0          0          0          0          0          0
  cmir             :       0.01       0.00         10          0          0         72         20          0
  disjunctive      :       0.00       0.00          0          0          0          0          0          0
  eccuts           :       0.00       0.00          0          0          0          0          0          0
  flowcover        :       0.84       0.00         15          0          0        288         57          0
  gomory           :       0.24       0.00         10          0          0         15         15          0
  impliedbounds    :       0.00       0.00         79          0          0        888        144          0
  intobj           :       0.00       0.00          0          0          0          0          0          0
  mcf              :       0.00       0.00          1          0          0          0          0          0
  oddcycle         :       0.00       0.00          0          0          0          0          0          0
  rapidlearning    :       0.00       0.00          0          0          0          0          0          0
  strongcg         :       0.39       0.00         20          0          0          3          2          0
  zerohalf         :       0.00       0.00          0          0          0          0          0          0
Pricers            :   ExecTime  SetupTime      Calls       Vars
  problem variables:       0.00          -          0          0
Branching Rules    :   ExecTime  SetupTime   BranchLP  BranchExt   BranchPS    Cutoffs    DomReds       Cuts      Conss   Children
  allfullstrong    :       0.00       0.00          0          0          0          0          0          0          0          0
  cloud            :       0.00       0.00          0          0          0          0          0          0          0          0
  distribution     :       0.00       0.00          0          0          0          0          0          0          0          0
  fullstrong       :       0.00       0.00          0          0          0          0          0          0          0          0
  inference        :       0.00       0.00          0          0          1          0          0          0          0          2
  leastinf         :       0.00       0.00          0          0          0          0          0          0          0          0
  mostinf          :       0.00       0.00          0          0          0          0          0          0          0          0
  multaggr         :       0.00       0.00          0          0          0          0          0          0          0          0
  nodereopt        :       0.00       0.00          0          0          0          0          0          0          0          0
  pscost           :       0.00       0.00          0          0          0          0          0          0          0          0
  random           :       0.00       0.00          0          0          0          0          0          0          0          0
  relpscost        :      25.74       0.00     767448          0          0          0      48409          0          0    1529618
Primal Heuristics  :   ExecTime  SetupTime      Calls      Found       Best
  LP solutions     :       0.00          -          -          0          -
  pseudo solutions :       0.00          -          -          0          -
  strong branching :       0.01          -          -          0          -
  SpaGreedy        :     151.24       0.00      60318          2          1
  actconsdiving    :       0.00       0.00          0          0          0
  bound            :       0.00       0.00          0          0          0
  clique           :       0.00       0.00          0          0          0
  coefdiving       :      60.92       0.00       9437          0          0
  crossover        :       0.17       0.00          0          0          0
  dins             :       0.00       0.00          0          0          0
  distributiondivin:      87.28       0.00       9437          0          0
  dualval          :       0.00       0.00          0          0          0
  feaspump         :      13.94       0.00       4718          0          0
  fixandinfer      :       0.00       0.00          0          0          0
  fracdiving       :      59.79       0.00       9437          0          0
  guideddiving     :       0.02       0.00          0          0          0
  indicator        :       0.06       0.00          0          0          0
  intdiving        :       0.00       0.00          0          0          0
  intshifting      :       2.12       0.00        253          0          0
  linesearchdiving :      76.73       0.00       9436          0          0
  localbranching   :       0.00       0.00          0          0          0
  mutation         :       0.00       0.00          0          0          0
  nlpdiving        :       0.01       0.00          0          0          0
  objpscostdiving  :      37.99       0.00       3690          0          0
  octane           :       0.00       0.00          0          0          0
  ofins            :       0.00       0.00          0          0          0
  oneopt           :       0.24       0.00          0          0          0
  proximity        :       0.00       0.00          0          0          0
  pscostdiving     :      59.55       0.00       9437          0          0
  randrounding     :       1.33       0.00      16390          0          0
  rens             :       0.00       0.00          0          0          0
  reoptsols        :       0.00       0.00          0          0          0
  rins             :       0.25       0.00          0          0          0
  rootsoldiving    :      43.02       0.00       3393          0          0
  rounding         :       0.83       0.00      12239          0          0
  shiftandpropagate:       0.00       0.00          0          0          0
  shifting         :       2.09       0.00       3195          0          0
  simplerounding   :       0.11       0.00          0          0          0
  subnlp           :       0.30       0.00          0          0          0
  trivial          :       0.00       0.00          2          0          0
  trivialnegation  :       0.00       0.00          0          0          0
  trysol           :       0.22       0.00          0          0          0
  twoopt           :       0.00       0.00          0          0          0
  undercover       :       0.00       0.00          1          0          0
  vbounds          :       0.00       0.00          0          0          0
  veclendiving     :      64.58       0.00       9437          0          0
  zeroobj          :       0.00       0.00          0          0          0
  zirounding       :       0.25       0.00       1000          0          0
  other solutions  :          -          -          -          0          -
Diving Statistics  :      Calls      Nodes   LP Iters Backtracks   MinDepth   MaxDepth   AvgDepth  NLeafSols  MinSolDpt  MaxSolDpt  AvgSolDpt
  actconsdiving    :          0          -          -          -          -          -          -          -          -          -          -
  coefdiving       :       9437      81212    1003267       8133         23         99       39.4          -          -          -          -
  distributiondivin:       9437      69305    1063382       8078         20         77       38.1          -          -          -          -
  fracdiving       :       9437      76727    1035943       8031         28         68       39.0          -          -          -          -
  guideddiving     :          0          -          -          -          -          -          -          -          -          -          -
  linesearchdiving :       9436      96004    1489171       6899         24         62       38.8          -          -          -          -
  pscostdiving     :       9437      71989     959329       8071         21         97       38.5          -          -          -          -
  veclendiving     :       9437      84557    1150844       8550         29         53       39.2          -          -          -          -
LP                 :       Time      Calls Iterations  Iter/call   Iter/sec  Time-0-It Calls-0-It
  primal LP        :       0.00         12          0       0.00          -       0.00         12
  dual LP          :    2088.65    1431798   57439223      41.81   27500.65      16.19      57835
  lex dual LP      :       0.00          0          0       0.00          -
  barrier LP       :       0.00          0          0       0.00          -       0.00          0
  diving/probing LP:     326.67     223586    8101760      36.24   24801.05
  strong branching :      14.89       3277     223376      68.16   15001.75
    (at root node) :          -         19       2475     130.26          -
  conflict analysis:       0.00          0          0       0.00          -
B&B Tree           :
  number of runs   :          1
  nodes            :    1096699 (764810 internal, 331889 leaves)
  nodes (total)    :    1096699 (764810 internal, 331889 leaves)
  nodes left       :     432916
  max depth        :         44
  max depth (total):         44
  backtracks       :     239189 (21.8%)
  delayed cutoffs  :          6
  repropagations   :        513 (5809 domain reductions, 6 cutoffs)
  avg switch length:       4.95
  switching time   :     291.84
Root Node          :
  First LP value   : +3.00000000000000e+00
  First LP Iters   :        847 (28233.33 Iter/sec)
  First LP Time    :       0.03
  Final Dual Bound : +1.10090181889500e-02
  Final Root Iters :       6148
Solution           :
  Solutions found  :          2 (1 improvements)
  First Solution   : +9.71467507999996e-04   (in run 1, after 1 nodes, 0.42 seconds, depth 0, found by <SpaGreedy>)
  Gap First Sol.   :   infinite
  Gap Last Sol.    :   infinite
  Primal Bound     : +9.71467507999996e-04   (in run 1, after 1 nodes, 0.42 seconds, depth 0, found by <SpaGreedy>)
  Dual Bound       : +3.41833101737627e-03
  Gap              :     251.87 %
  Avg. Gap         :      91.18 % (328262.49 primal-dual integral)
